# Solution for model GasLib-40
# Objective value = 4.3748589149750345e+01
loadshed[innode_1] 0
loadshed[innode_2] 0
loadshed[innode_3] 0
loadshed[innode_4] 0
loadshed[innode_5] 0
loadshed[innode_6] 0
loadshed[innode_7] 0
loadshed[innode_8] 0
loadshed[source_1] -1.8641766291781114e-01
loadshed[source_2] 1.6904258408253192e-01
loadshed[source_3] 2.9410676508886513e-01
loadshed[sink_1] 0
loadshed[sink_2] 0
loadshed[sink_3] 0
loadshed[sink_4] 0
loadshed[sink_5] 0
loadshed[sink_6] 0
loadshed[sink_7] 0
loadshed[sink_8] 0
loadshed[sink_9] 0
loadshed[sink_10] 0
loadshed[sink_11] 0
loadshed[sink_12] 1
loadshed[sink_13] 0
loadshed[sink_14] 0
loadshed[sink_15] 0
loadshed[sink_16] 0
loadshed[sink_17] 0
loadshed[sink_18] 0
loadshed[sink_19] 0
loadshed[sink_20] 0
loadshed[sink_21] 1
loadshed[sink_22] 0
loadshed[sink_23] 0
loadshed[sink_24] 6.7507296711849241e-01
loadshed[sink_25] 0
loadshed[sink_26] 0
loadshed[sink_27] 0
loadshed[sink_28] 0
loadshed[sink_29] 0
flow[source_1,sink_3] 1.8756109789113867e+02
flow[innode_1,sink_16] 1.6354166666666970e+01
flow[innode_6,sink_13] 2.8843090781114640e+00
flow[sink_13,sink_14] -1.3469857588555204e+01
flow[sink_14,sink_10] -2.9824024255221872e+01
flow[sink_25,sink_26] 1.2232331551652503e+02
flow[sink_26,sink_9] 1.6354166666669244e+01
flow[sink_9,sink_18] 0
flow[sink_26,sink_4] 8.9614982183189113e+01
flow[sink_4,sink_20] -1.5243368701604433e+01
flow[sink_18,sink_6] -1.6354166666667879e+01
flow[sink_25,innode_8] -1.5485276455780229e+02
flow[sink_6,sink_7] -6.5416666666666671e+01
flow[sink_6,sink_22] 3.2708333333333641e+01
flow[sink_7,sink_24] 5.3139108502496537e+00
flow[sink_22,sink_1] 1.6354166666666970e+01
flow[sink_24,sink_21] 0
flow[sink_21,sink_12] 0
flow[sink_7,sink_5] -87.0847441835845
flow[sink_5,sink_17] -1.0343891085025118e+02
flow[sink_17,sink_4] -8.8504184218126881e+01
flow[sink_17,sink_8] -3.1288893298790970e+01
flow[sink_3,sink_23] 16.3541666666697
flow[sink_8,sink_20] -4.7643059965457638e+01
flow[sink_25,sink_20] 7.9240595333728749e+01
flow[sink_25,sink_15] -6.5949622037229048e+01
flow[sink_15,sink_29] 0
flow[sink_29,sink_28] 1.6354166666667879e+01
flow[sink_29,sink_2] 9.8657955370562391e+01
flow[sink_2,sink_15] 8.2303788703895719e+01
flow[sink_29,innode_7] -1.3136628870389694e+02
flow[innode_4,sink_19] 0
flow[sink_19,innode_3] 3.8496290856710566e+01
flow[innode_4,innode_5] 1.1159485758855544e+02
flow[sink_27,innode_5] -1.1159485758855544e+02
flow[sink_27,sink_19] 9.5240690921888771e+01
flow[sink_10,sink_11] 3.2708333333333641e+01
flow[sink_10,innode_2] -4.0390233398511612e+01
flow[sink_10,innode_3] -3.8496290856710566e+01
flow[innode_6,sink_25] -2.8843090781114640e+00
flow[sink_11,innode_1] 1.6354166666666970e+01
flow[sink_19,innode_2] 4.0390233398511612e+01
flow[source_3,innode_4] 1.1159485758855544e+02
flow[source_2,innode_7] 1.3136628870389694e+02
flow[sink_3,innode_8] 1.5485276455780229e+02
pressure[innode_1] 7.5679113297917851e+01
pressure[innode_2] 7.7965605257760132e+01
pressure[innode_3] 7.7880359580889987e+01
pressure[innode_4] 81.01325
pressure[innode_5] 8.0936489172535516e+01
pressure[innode_6] 7.4411975391935655e+01
pressure[innode_7] 81.01325
pressure[innode_8] 8.0386304900686383e+01
pressure[source_1] 81.01325
pressure[source_2] 81.01325
pressure[source_3] 81.01325
pressure[sink_1] 4.0981894639613712e+00
pressure[sink_2] 7.5000599052223265e+01
pressure[sink_3] 8.0386304900686383e+01
pressure[sink_4] 5.4402935347907743e+01
pressure[sink_5] 4.3315146080196307e+01
pressure[sink_6] 6.1992670743487448e+00
pressure[sink_7] 7.0972819779489358e+00
pressure[sink_8] 5.2201208491326739e+01
pressure[sink_9] 6.4817977032663819e+01
pressure[sink_10] 75.8308146055214
pressure[sink_11] 7.5679113297917851e+01
pressure[sink_12] 1.01325
pressure[sink_13] 7.4396074678000858e+01
pressure[sink_14] 7.4420180135533741e+01
pressure[sink_15] 74.7318953215679
pressure[sink_16] 7.4657463463100171e+01
pressure[sink_17] 5.1020597260617421e+01
pressure[sink_18] 5.7625621315955051e+00
pressure[sink_19] 7.7965605257760132e+01
pressure[sink_20] 5.5521259753653588e+01
pressure[sink_21] 1.01325
pressure[sink_22] 5.1619586063163814e+00
pressure[sink_23] 8.0221586889026582e+01
pressure[sink_24] 1.01325
pressure[sink_25] 7.4411975391935655e+01
pressure[sink_26] 6.5796816116606237e+01
pressure[sink_27] 8.0010458059675329e+01
pressure[sink_28] 7.7204434130398326e+01
pressure[sink_29] 77.4997164040155
interdiction[source_1,sink_3] 0
interdiction[innode_1,sink_16] 0
interdiction[innode_6,sink_13] 0
interdiction[sink_13,sink_14] 0
interdiction[sink_14,sink_10] 0
interdiction[sink_25,sink_26] 0
interdiction[sink_26,sink_9] 0
interdiction[sink_9,sink_18] 1
interdiction[sink_26,sink_4] 0
interdiction[sink_4,sink_20] 0
interdiction[sink_18,sink_6] 0
interdiction[sink_25,innode_8] 0
interdiction[sink_6,sink_7] 0
interdiction[sink_6,sink_22] 0
interdiction[sink_7,sink_24] 0
interdiction[sink_22,sink_1] 0
interdiction[sink_24,sink_21] 0
interdiction[sink_21,sink_12] 0
interdiction[sink_7,sink_5] 0
interdiction[sink_5,sink_17] 0
interdiction[sink_17,sink_4] 0
interdiction[sink_17,sink_8] 0
interdiction[sink_3,sink_23] 0
interdiction[sink_8,sink_20] 0
interdiction[sink_25,sink_20] 0
interdiction[sink_25,sink_15] 0
interdiction[sink_15,sink_29] 1
interdiction[sink_29,sink_28] 0
interdiction[sink_29,sink_2] 0
interdiction[sink_2,sink_15] 0
interdiction[sink_29,innode_7] 0
interdiction[innode_4,sink_19] 1
interdiction[sink_19,innode_3] 0
interdiction[innode_4,innode_5] 0
interdiction[sink_27,innode_5] 0
interdiction[sink_27,sink_19] 0
interdiction[sink_10,sink_11] 0
interdiction[sink_10,innode_2] 0
interdiction[sink_10,innode_3] 0
interdiction[innode_6,sink_25] 0
interdiction[sink_11,innode_1] 0
interdiction[sink_19,innode_2] 0
interdiction[source_3,innode_4] 0
interdiction[source_2,innode_7] 0
interdiction[sink_3,innode_8] 0
WCcheckFlow[source_1,sink_3] 39
WCcheckFlow[innode_1,sink_16] 1
WCcheckFlow[innode_6,sink_13] 13
WCcheckFlow[sink_13,sink_14] 12
WCcheckFlow[sink_14,sink_10] 11
WCcheckFlow[sink_25,sink_26] 15
WCcheckFlow[sink_26,sink_9] 1
WCcheckFlow[sink_9,sink_18] 0
WCcheckFlow[sink_26,sink_4] 13
WCcheckFlow[sink_4,sink_20] 1
WCcheckFlow[sink_18,sink_6] -1
WCcheckFlow[sink_25,innode_8] -36
WCcheckFlow[sink_6,sink_7] -4
WCcheckFlow[sink_6,sink_22] 2
WCcheckFlow[sink_7,sink_24] 3
WCcheckFlow[sink_22,sink_1] 1
WCcheckFlow[sink_24,sink_21] 2
WCcheckFlow[sink_21,sink_12] 1
WCcheckFlow[sink_7,sink_5] -8
WCcheckFlow[sink_5,sink_17] -9
WCcheckFlow[sink_17,sink_4] -11
WCcheckFlow[sink_17,sink_8] 1
WCcheckFlow[sink_3,sink_23] 1
WCcheckFlow[sink_8,sink_20] 0
WCcheckFlow[sink_25,sink_20] 0
WCcheckFlow[sink_25,sink_15] 6
WCcheckFlow[sink_15,sink_29] 0
WCcheckFlow[sink_29,sink_28] 1
WCcheckFlow[sink_29,sink_2] -4
WCcheckFlow[sink_2,sink_15] -5
WCcheckFlow[sink_29,innode_7] 2
WCcheckFlow[innode_4,sink_19] 0
WCcheckFlow[sink_19,innode_3] -5
WCcheckFlow[innode_4,innode_5] -2
WCcheckFlow[sink_27,innode_5] 3
WCcheckFlow[sink_27,sink_19] -4
WCcheckFlow[sink_10,sink_11] 3
WCcheckFlow[sink_10,innode_2] 1
WCcheckFlow[sink_10,innode_3] 6
WCcheckFlow[innode_6,sink_25] -14
WCcheckFlow[sink_11,innode_1] 2
WCcheckFlow[sink_19,innode_2] 0
WCcheckFlow[source_3,innode_4] -1
WCcheckFlow[source_2,innode_7] -1
WCcheckFlow[sink_3,innode_8] 37
